"Example"
24 = mDIM
1 = nBLOCK
24 = bLOCKsTRUCT
1 1 1 1 1 1 1 1 1 1 1 1 1 1 1 1 1 1 1 1 1 1 1 1 
0 1 1 13 0.110372
0 1 1 14 0.014258
0 1 1 15 0.028258
0 1 1 16 0.025458
0 1 1 17 0.018458
0 1 1 18 0.018858
0 1 1 19 0.028058
0 1 1 20 0.031658
0 1 1 21 0.012858
0 1 1 22 -0.154542
0 1 1 23 0.023858
0 1 1 24 -0.157542
0 1 2 13 0.019458
0 1 2 14 -0.002078
0 1 2 15 -0.005278
0 1 2 16 -0.006678
0 1 2 17 -0.005878
0 1 2 18 -0.004278
0 1 2 19 -0.007078
0 1 2 20 -0.006078
0 1 2 21 -0.005878
0 1 2 22 0.013322
0 1 2 23 -0.003278
0 1 2 24 0.013722
0 1 3 13 -0.160342
0 1 3 14 0.013922
0 1 3 15 0.014322
0 1 3 16 0.013722
0 1 3 17 0.013922
0 1 3 18 0.013722
0 1 3 19 0.013922
0 1 3 20 0.014122
0 1 3 21 0.015322
0 1 3 22 0.016322
0 1 3 23 0.014522
0 1 3 24 0.016522
0 1 4 13 -0.152542
0 1 4 14 0.013522
0 1 4 15 0.013322
0 1 4 16 0.014722
0 1 4 17 0.013922
0 1 4 18 0.013722
0 1 4 19 0.011722
0 1 4 20 0.012322
0 1 4 21 0.012722
0 1 4 22 0.016522
0 1 4 23 0.013722
0 1 4 24 0.016322
0 1 5 13 0.023258
0 1 5 14 -0.006478
0 1 5 15 -0.005678
0 1 5 16 -0.006678
0 1 5 17 -0.005878
0 1 5 18 -0.004078
0 1 5 19 -0.003478
0 1 5 20 -0.006478
0 1 5 21 -0.004878
0 1 5 22 0.013722
0 1 5 23 -0.007278
0 1 5 24 0.013922
0 1 6 13 0.028258
0 1 6 14 -0.006878
0 1 6 15 -0.007078
0 1 6 16 -0.004078
0 1 6 17 -0.004678
0 1 6 18 -0.007278
0 1 6 19 -0.006478
0 1 6 20 -0.007278
0 1 6 21 -0.004478
0 1 6 22 0.012722
0 1 6 23 -0.006478
0 1 6 24 0.013722
0 1 7 13 0.009858
0 1 7 14 -0.001678
0 1 7 15 -0.003678
0 1 7 16 -0.007878
0 1 7 17 -0.006278
0 1 7 18 -0.000678
0 1 7 19 -0.002078
0 1 7 20 -0.003878
0 1 7 21 -0.004478
0 1 7 22 0.012122
0 1 7 23 -0.005478
0 1 7 24 0.014122
0 1 8 13 0.014258
0 1 8 14 -0.003678
0 1 8 15 -0.002878
0 1 8 16 -0.006878
0 1 8 17 -0.006278
0 1 8 18 -0.001878
0 1 8 19 -0.006678
0 1 8 20 -0.007478
0 1 8 21 -0.001478
0 1 8 22 0.014922
0 1 8 23 -0.007678
0 1 8 24 0.015722
0 1 9 13 0.020458
0 1 9 14 -0.007078
0 1 9 15 -0.006078
0 1 9 16 -0.005278
0 1 9 17 -0.002078
0 1 9 18 -0.003878
0 1 9 19 -0.005078
0 1 9 20 -0.006478
0 1 9 21 -0.005678
0 1 9 22 0.012922
0 1 9 23 -0.004478
0 1 9 24 0.012722
0 1 10 13 0.028458
0 1 10 14 -0.005078
0 1 10 15 -0.006678
0 1 10 16 -0.008078
0 1 10 17 -0.006078
0 1 10 18 -0.006478
0 1 10 19 -0.010478
0 1 10 20 -0.005078
0 1 10 21 -0.002678
0 1 10 22 0.014322
0 1 10 23 -0.005678
0 1 10 24 0.013522
0 1 11 13 0.034058
0 1 11 14 -0.005278
0 1 11 15 -0.009078
0 1 11 16 -0.004078
0 1 11 17 -0.004078
0 1 11 18 -0.009478
0 1 11 19 -0.008878
0 1 11 20 -0.008278
0 1 11 21 -0.005278
0 1 11 22 0.014522
0 1 11 23 -0.008078
0 1 11 24 0.013922
0 1 12 13 0.024458
0 1 12 14 -0.003478
0 1 12 15 -0.009478
0 1 12 16 -0.004278
0 1 12 17 -0.005078
0 1 12 18 -0.008278
0 1 12 19 -0.003478
0 1 12 20 -0.007078
0 1 12 21 -0.006078
0 1 12 22 0.013122
0 1 12 23 -0.003678
0 1 12 24 0.013322
1 1 1 1 1
2 1 2 2 1
3 1 3 3 1
4 1 4 4 1
5 1 5 5 1
6 1 6 6 1
7 1 7 7 1
8 1 8 8 1
9 1 9 9 1
10 1 10 10 1
11 1 11 11 1
12 1 12 12 1
13 1 13 13 1
14 1 14 14 1
15 1 15 15 1
16 1 16 16 1
17 1 17 17 1
18 1 18 18 1
19 1 19 19 1
20 1 20 20 1
21 1 21 21 1
22 1 22 22 1
23 1 23 23 1
24 1 24 24 1
